5 5
0 81 1 83 2 44 4 68 3 48
1 57 3 75 0 22 4 4 2 81
0 72 1 46 4 59 2 34 3 11
1 31 2 11 3 56 4 38 0 21
2 94 4 10 3 26 0 91 1 8
-1
0 2 3 4 5
0 2 5
0 1 2 3 5
0 1 2 3 5
0 3 5
-2
192 278 292 503
176 348
99 181 270 315
39 61 128 186
139 312

387 5
0 10 19 7 23
15 5 1 11 24
16 20 2 9 13
17 6 22 4 14
18 21 8 3 12
